Minimize
  x_0_0 + x_0_1 + 10 t_0_1_0 + 10 t_0_1_1 + 10 t_0_1_2 + 10 t_0_1_3 + x_0_2
   + 14.14213562373095 t_0_2_0 + 14.14213562373095 t_0_2_1
   + 14.14213562373095 t_0_2_2 + 14.14213562373095 t_0_2_3 + x_0_3
   + 10 t_0_3_0 + 10 t_0_3_1 + 10 t_0_3_2 + 10 t_0_3_3 + x_0_4
   + 14.14213562373095 t_0_4_0 + 14.14213562373095 t_0_4_1
   + 14.14213562373095 t_0_4_2 + 14.14213562373095 t_0_4_3 + x_1_0
   + 10 t_1_0_0 + 10 t_1_0_1 + 10 t_1_0_2 + 10 t_1_0_3 + x_1_1 + x_1_2
   + 10 t_1_2_0 + 10 t_1_2_1 + 10 t_1_2_2 + 10 t_1_2_3 + x_1_3 + 20 t_1_3_0
   + 20 t_1_3_1 + 20 t_1_3_2 + 20 t_1_3_3 + x_1_4
   + 22.3606797749979 t_1_4_0 + 22.3606797749979 t_1_4_1
   + 22.3606797749979 t_1_4_2 + 22.3606797749979 t_1_4_3 + x_2_0
   + 14.14213562373095 t_2_0_0 + 14.14213562373095 t_2_0_1
   + 14.14213562373095 t_2_0_2 + 14.14213562373095 t_2_0_3 + x_2_1
   + 10 t_2_1_0 + 10 t_2_1_1 + 10 t_2_1_2 + 10 t_2_1_3 + x_2_2 + x_2_3
   + 22.3606797749979 t_2_3_0 + 22.3606797749979 t_2_3_1
   + 22.3606797749979 t_2_3_2 + 22.3606797749979 t_2_3_3 + x_2_4
   + 28.2842712474619 t_2_4_0 + 28.2842712474619 t_2_4_1
   + 28.2842712474619 t_2_4_2 + 28.2842712474619 t_2_4_3 + x_3_0
   + 10 t_3_0_0 + 10 t_3_0_1 + 10 t_3_0_2 + 10 t_3_0_3 + x_3_1 + 20 t_3_1_0
   + 20 t_3_1_1 + 20 t_3_1_2 + 20 t_3_1_3 + x_3_2
   + 22.3606797749979 t_3_2_0 + 22.3606797749979 t_3_2_1
   + 22.3606797749979 t_3_2_2 + 22.3606797749979 t_3_2_3 + x_3_3 + x_3_4
   + 10 t_3_4_0 + 10 t_3_4_1 + 10 t_3_4_2 + 10 t_3_4_3 + x_4_0
   + 14.14213562373095 t_4_0_0 + 14.14213562373095 t_4_0_1
   + 14.14213562373095 t_4_0_2 + 14.14213562373095 t_4_0_3 + x_4_1
   + 22.3606797749979 t_4_1_0 + 22.3606797749979 t_4_1_1
   + 22.3606797749979 t_4_1_2 + 22.3606797749979 t_4_1_3 + x_4_2
   + 28.2842712474619 t_4_2_0 + 28.2842712474619 t_4_2_1
   + 28.2842712474619 t_4_2_2 + 28.2842712474619 t_4_2_3 + x_4_3
   + 10 t_4_3_0 + 10 t_4_3_1 + 10 t_4_3_2 + 10 t_4_3_3 + x_4_4 + u_0 + u_1
   + u_2 + u_3 + v_0 + v_1 + v_2 + v_3
Subject To
 C1_0: 3 t_1_0_0 + 3 t_1_1_0 + 3 t_1_2_0 + 3 t_1_3_0 + 3 t_1_4_0
   + 3 t_2_0_0 + 3 t_2_1_0 + 3 t_2_2_0 + 3 t_2_3_0 + 3 t_2_4_0 + 3 t_3_0_0
   + 3 t_3_1_0 + 3 t_3_2_0 + 3 t_3_3_0 + 3 t_3_4_0 + 3 t_4_0_0 + 3 t_4_1_0
   + 3 t_4_2_0 + 3 t_4_3_0 + 3 t_4_4_0 <= 10
 C1_1: 3 t_1_0_1 + 3 t_1_1_1 + 3 t_1_2_1 + 3 t_1_3_1 + 3 t_1_4_1
   + 3 t_2_0_1 + 3 t_2_1_1 + 3 t_2_2_1 + 3 t_2_3_1 + 3 t_2_4_1 + 3 t_3_0_1
   + 3 t_3_1_1 + 3 t_3_2_1 + 3 t_3_3_1 + 3 t_3_4_1 + 3 t_4_0_1 + 3 t_4_1_1
   + 3 t_4_2_1 + 3 t_4_3_1 + 3 t_4_4_1 <= 10
 C1_2: 3 t_1_0_2 + 3 t_1_1_2 + 3 t_1_2_2 + 3 t_1_3_2 + 3 t_1_4_2
   + 3 t_2_0_2 + 3 t_2_1_2 + 3 t_2_2_2 + 3 t_2_3_2 + 3 t_2_4_2 + 3 t_3_0_2
   + 3 t_3_1_2 + 3 t_3_2_2 + 3 t_3_3_2 + 3 t_3_4_2 + 3 t_4_0_2 + 3 t_4_1_2
   + 3 t_4_2_2 + 3 t_4_3_2 + 3 t_4_4_2 <= 10
 C1_3: 3 t_1_0_3 + 3 t_1_1_3 + 3 t_1_2_3 + 3 t_1_3_3 + 3 t_1_4_3
   + 3 t_2_0_3 + 3 t_2_1_3 + 3 t_2_2_3 + 3 t_2_3_3 + 3 t_2_4_3 + 3 t_3_0_3
   + 3 t_3_1_3 + 3 t_3_2_3 + 3 t_3_3_3 + 3 t_3_4_3 + 3 t_4_0_3 + 3 t_4_1_3
   + 3 t_4_2_3 + 3 t_4_3_3 + 3 t_4_4_3 <= 10
 C2_0_0: - x_0_0 + t_0_0_0 + t_0_0_1 + t_0_0_2 + t_0_0_3 = 0
 C2_0_1: - x_0_1 + t_0_1_0 + t_0_1_1 + t_0_1_2 + t_0_1_3 = 0
 C2_0_2: - x_0_2 + t_0_2_0 + t_0_2_1 + t_0_2_2 + t_0_2_3 = 0
 C2_0_3: - x_0_3 + t_0_3_0 + t_0_3_1 + t_0_3_2 + t_0_3_3 = 0
 C2_0_4: - x_0_4 + t_0_4_0 + t_0_4_1 + t_0_4_2 + t_0_4_3 = 0
 C2_1_0: - x_1_0 + t_1_0_0 + t_1_0_1 + t_1_0_2 + t_1_0_3 = 0
 C2_1_1: - x_1_1 + t_1_1_0 + t_1_1_1 + t_1_1_2 + t_1_1_3 = 0
 C2_1_2: - x_1_2 + t_1_2_0 + t_1_2_1 + t_1_2_2 + t_1_2_3 = 0
 C2_1_3: - x_1_3 + t_1_3_0 + t_1_3_1 + t_1_3_2 + t_1_3_3 = 0
 C2_1_4: - x_1_4 + t_1_4_0 + t_1_4_1 + t_1_4_2 + t_1_4_3 = 0
 C2_2_0: - x_2_0 + t_2_0_0 + t_2_0_1 + t_2_0_2 + t_2_0_3 = 0
 C2_2_1: - x_2_1 + t_2_1_0 + t_2_1_1 + t_2_1_2 + t_2_1_3 = 0
 C2_2_2: - x_2_2 + t_2_2_0 + t_2_2_1 + t_2_2_2 + t_2_2_3 = 0
 C2_2_3: - x_2_3 + t_2_3_0 + t_2_3_1 + t_2_3_2 + t_2_3_3 = 0
 C2_2_4: - x_2_4 + t_2_4_0 + t_2_4_1 + t_2_4_2 + t_2_4_3 = 0
 C2_3_0: - x_3_0 + t_3_0_0 + t_3_0_1 + t_3_0_2 + t_3_0_3 = 0
 C2_3_1: - x_3_1 + t_3_1_0 + t_3_1_1 + t_3_1_2 + t_3_1_3 = 0
 C2_3_2: - x_3_2 + t_3_2_0 + t_3_2_1 + t_3_2_2 + t_3_2_3 = 0
 C2_3_3: - x_3_3 + t_3_3_0 + t_3_3_1 + t_3_3_2 + t_3_3_3 = 0
 C2_3_4: - x_3_4 + t_3_4_0 + t_3_4_1 + t_3_4_2 + t_3_4_3 = 0
 C2_4_0: - x_4_0 + t_4_0_0 + t_4_0_1 + t_4_0_2 + t_4_0_3 = 0
 C2_4_1: - x_4_1 + t_4_1_0 + t_4_1_1 + t_4_1_2 + t_4_1_3 = 0
 C2_4_2: - x_4_2 + t_4_2_0 + t_4_2_1 + t_4_2_2 + t_4_2_3 = 0
 C2_4_3: - x_4_3 + t_4_3_0 + t_4_3_1 + t_4_3_2 + t_4_3_3 = 0
 C2_4_4: - x_4_4 + t_4_4_0 + t_4_4_1 + t_4_4_2 + t_4_4_3 = 0
 C3_1: x_1_0 + x_1_1 + x_1_2 + x_1_3 + x_1_4 = 1
 C3_2: x_2_0 + x_2_1 + x_2_2 + x_2_3 + x_2_4 = 1
 C3_3: x_3_0 + x_3_1 + x_3_2 + x_3_3 + x_3_4 = 1
 C3_4: x_4_0 + x_4_1 + x_4_2 + x_4_3 + x_4_4 = 1
 C4_1: x_0_1 + x_1_1 + x_2_1 + x_3_1 + x_4_1 = 1
 C4_2: x_0_2 + x_1_2 + x_2_2 + x_3_2 + x_4_2 = 1
 C4_3: x_0_3 + x_1_3 + x_2_3 + x_3_3 + x_4_3 = 1
 C4_4: x_0_4 + x_1_4 + x_2_4 + x_3_4 + x_4_4 = 1
 C41_1_1: x_1_1 - v_1 <= 0
 C42_1_1: x_1_1 - v_1 <= 0
 C41_1_2: x_1_2 - v_2 <= 0
 C42_1_2: x_1_2 - v_1 <= 0
 C41_1_3: x_1_3 - v_3 <= 0
 C42_1_3: x_1_3 - v_1 <= 0
 C41_2_1: x_2_1 - v_1 <= 0
 C42_2_1: x_2_1 - v_2 <= 0
 C41_2_2: x_2_2 - v_2 <= 0
 C42_2_2: x_2_2 - v_2 <= 0
 C41_2_3: x_2_3 - v_3 <= 0
 C42_2_3: x_2_3 - v_2 <= 0
 C41_3_1: x_3_1 - v_1 <= 0
 C42_3_1: x_3_1 - v_3 <= 0
 C41_3_2: x_3_2 - v_2 <= 0
 C42_3_2: x_3_2 - v_3 <= 0
 C41_3_3: x_3_3 - v_3 <= 0
 C42_3_3: x_3_3 - v_3 <= 0
 C5: x_0_1 + x_0_2 + x_0_3 + x_0_4 <= 4
 C6: x_1_0 + x_2_0 + x_3_0 + x_4_0 <= 4
 C8_1_0: - t_0_1_0 + t_1_0_0 + t_1_2_0 + t_1_3_0 + t_1_4_0 - t_2_1_0
   - t_3_1_0 - t_4_1_0 = 0
 C8_1_1: - t_0_1_1 + t_1_0_1 + t_1_2_1 + t_1_3_1 + t_1_4_1 - t_2_1_1
   - t_3_1_1 - t_4_1_1 = 0
 C8_1_2: - t_0_1_2 + t_1_0_2 + t_1_2_2 + t_1_3_2 + t_1_4_2 - t_2_1_2
   - t_3_1_2 - t_4_1_2 = 0
 C8_1_3: - t_0_1_3 + t_1_0_3 + t_1_2_3 + t_1_3_3 + t_1_4_3 - t_2_1_3
   - t_3_1_3 - t_4_1_3 = 0
 C8_2_0: - t_0_2_0 - t_1_2_0 + t_2_0_0 + t_2_1_0 + t_2_3_0 + t_2_4_0
   - t_3_2_0 - t_4_2_0 = 0
 C8_2_1: - t_0_2_1 - t_1_2_1 + t_2_0_1 + t_2_1_1 + t_2_3_1 + t_2_4_1
   - t_3_2_1 - t_4_2_1 = 0
 C8_2_2: - t_0_2_2 - t_1_2_2 + t_2_0_2 + t_2_1_2 + t_2_3_2 + t_2_4_2
   - t_3_2_2 - t_4_2_2 = 0
 C8_2_3: - t_0_2_3 - t_1_2_3 + t_2_0_3 + t_2_1_3 + t_2_3_3 + t_2_4_3
   - t_3_2_3 - t_4_2_3 = 0
 C8_3_0: - t_0_3_0 - t_1_3_0 - t_2_3_0 + t_3_0_0 + t_3_1_0 + t_3_2_0
   + t_3_4_0 - t_4_3_0 = 0
 C8_3_1: - t_0_3_1 - t_1_3_1 - t_2_3_1 + t_3_0_1 + t_3_1_1 + t_3_2_1
   + t_3_4_1 - t_4_3_1 = 0
 C8_3_2: - t_0_3_2 - t_1_3_2 - t_2_3_2 + t_3_0_2 + t_3_1_2 + t_3_2_2
   + t_3_4_2 - t_4_3_2 = 0
 C8_3_3: - t_0_3_3 - t_1_3_3 - t_2_3_3 + t_3_0_3 + t_3_1_3 + t_3_2_3
   + t_3_4_3 - t_4_3_3 = 0
 C9_0_1: 7 t_0_1_0 + u_0 <= 10
 C9_0_2: 7 t_0_2_0 + u_1 <= 10
 C9_0_3: 7 t_0_3_0 + u_2 <= 10
 C9_0_4: 7 t_0_4_0 + u_3 <= 10
 C9_1_1: 7 t_0_1_1 + u_0 <= 10
 C9_1_2: 7 t_0_2_1 + u_1 <= 10
 C9_1_3: 7 t_0_3_1 + u_2 <= 10
 C9_1_4: 7 t_0_4_1 + u_3 <= 10
 C9_2_1: 7 t_0_1_2 + u_0 <= 10
 C9_2_2: 7 t_0_2_2 + u_1 <= 10
 C9_2_3: 7 t_0_3_2 + u_2 <= 10
 C9_2_4: 7 t_0_4_2 + u_3 <= 10
 C9_3_1: 7 t_0_1_3 + u_0 <= 10
 C9_3_2: 7 t_0_2_3 + u_1 <= 10
 C9_3_3: 7 t_0_3_3 + u_2 <= 10
 C9_3_4: 7 t_0_4_3 + u_3 <= 10
 C10_0_1_2: 10 t_1_2_0 + u_0 - u_1 <= 7
 C10_0_1_3: 10 t_1_3_0 + u_0 - u_2 <= 7
 C10_0_1_4: 10 t_1_4_0 + u_0 - u_3 <= 7
 C10_0_2_1: 10 t_2_1_0 - u_0 + u_1 <= 7
 C10_0_2_3: 10 t_2_3_0 + u_1 - u_2 <= 7
 C10_0_2_4: 10 t_2_4_0 + u_1 - u_3 <= 7
 C10_0_3_1: 10 t_3_1_0 - u_0 + u_2 <= 7
 C10_0_3_2: 10 t_3_2_0 - u_1 + u_2 <= 7
 C10_0_3_4: 10 t_3_4_0 + u_2 - u_3 <= 7
 C10_0_4_1: 10 t_4_1_0 - u_0 + u_3 <= 7
 C10_0_4_2: 10 t_4_2_0 - u_1 + u_3 <= 7
 C10_0_4_3: 10 t_4_3_0 - u_2 + u_3 <= 7
 C10_1_1_2: 10 t_1_2_1 + u_0 - u_1 <= 7
 C10_1_1_3: 10 t_1_3_1 + u_0 - u_2 <= 7
 C10_1_1_4: 10 t_1_4_1 + u_0 - u_3 <= 7
 C10_1_2_1: 10 t_2_1_1 - u_0 + u_1 <= 7
 C10_1_2_3: 10 t_2_3_1 + u_1 - u_2 <= 7
 C10_1_2_4: 10 t_2_4_1 + u_1 - u_3 <= 7
 C10_1_3_1: 10 t_3_1_1 - u_0 + u_2 <= 7
 C10_1_3_2: 10 t_3_2_1 - u_1 + u_2 <= 7
 C10_1_3_4: 10 t_3_4_1 + u_2 - u_3 <= 7
 C10_1_4_1: 10 t_4_1_1 - u_0 + u_3 <= 7
 C10_1_4_2: 10 t_4_2_1 - u_1 + u_3 <= 7
 C10_1_4_3: 10 t_4_3_1 - u_2 + u_3 <= 7
 C10_2_1_2: 10 t_1_2_2 + u_0 - u_1 <= 7
 C10_2_1_3: 10 t_1_3_2 + u_0 - u_2 <= 7
 C10_2_1_4: 10 t_1_4_2 + u_0 - u_3 <= 7
 C10_2_2_1: 10 t_2_1_2 - u_0 + u_1 <= 7
 C10_2_2_3: 10 t_2_3_2 + u_1 - u_2 <= 7
 C10_2_2_4: 10 t_2_4_2 + u_1 - u_3 <= 7
 C10_2_3_1: 10 t_3_1_2 - u_0 + u_2 <= 7
 C10_2_3_2: 10 t_3_2_2 - u_1 + u_2 <= 7
 C10_2_3_4: 10 t_3_4_2 + u_2 - u_3 <= 7
 C10_2_4_1: 10 t_4_1_2 - u_0 + u_3 <= 7
 C10_2_4_2: 10 t_4_2_2 - u_1 + u_3 <= 7
 C10_2_4_3: 10 t_4_3_2 - u_2 + u_3 <= 7
 C10_3_1_2: 10 t_1_2_3 + u_0 - u_1 <= 7
 C10_3_1_3: 10 t_1_3_3 + u_0 - u_2 <= 7
 C10_3_1_4: 10 t_1_4_3 + u_0 - u_3 <= 7
 C10_3_2_1: 10 t_2_1_3 - u_0 + u_1 <= 7
 C10_3_2_3: 10 t_2_3_3 + u_1 - u_2 <= 7
 C10_3_2_4: 10 t_2_4_3 + u_1 - u_3 <= 7
 C10_3_3_1: 10 t_3_1_3 - u_0 + u_2 <= 7
 C10_3_3_2: 10 t_3_2_3 - u_1 + u_2 <= 7
 C10_3_3_4: 10 t_3_4_3 + u_2 - u_3 <= 7
 C10_3_4_1: 10 t_4_1_3 - u_0 + u_3 <= 7
 C10_3_4_2: 10 t_4_2_3 - u_1 + u_3 <= 7
 C10_3_4_3: 10 t_4_3_3 - u_2 + u_3 <= 7
Bounds
 x_0_0 = 0
 t_0_0_0 = 0
 t_0_0_1 = 0
 t_0_0_2 = 0
 t_0_0_3 = 0
 x_1_1 = 0
 t_1_1_0 = 0
 t_1_1_1 = 0
 t_1_1_2 = 0
 t_1_1_3 = 0
 x_2_2 = 0
 t_2_2_0 = 0
 t_2_2_1 = 0
 t_2_2_2 = 0
 t_2_2_3 = 0
 x_3_3 = 0
 t_3_3_0 = 0
 t_3_3_1 = 0
 t_3_3_2 = 0
 t_3_3_3 = 0
 x_4_4 = 0
 t_4_4_0 = 0
 t_4_4_1 = 0
 t_4_4_2 = 0
 t_4_4_3 = 0
 3 <= u_0 <= 10
 3 <= u_1 <= 10
 3 <= u_2 <= 10
 3 <= u_3 <= 10
 v_0 = 1
 v_1 = 1
 v_2 = 1
 v_3 = 1
Binaries
 x_0_0 t_0_0_0 t_0_0_1 t_0_0_2 t_0_0_3 x_0_1 t_0_1_0 t_0_1_1 t_0_1_2
 t_0_1_3 x_0_2 t_0_2_0 t_0_2_1 t_0_2_2 t_0_2_3 x_0_3 t_0_3_0 t_0_3_1
 t_0_3_2 t_0_3_3 x_0_4 t_0_4_0 t_0_4_1 t_0_4_2 t_0_4_3 x_1_0 t_1_0_0
 t_1_0_1 t_1_0_2 t_1_0_3 x_1_1 t_1_1_0 t_1_1_1 t_1_1_2 t_1_1_3 x_1_2
 t_1_2_0 t_1_2_1 t_1_2_2 t_1_2_3 x_1_3 t_1_3_0 t_1_3_1 t_1_3_2 t_1_3_3
 x_1_4 t_1_4_0 t_1_4_1 t_1_4_2 t_1_4_3 x_2_0 t_2_0_0 t_2_0_1 t_2_0_2
 t_2_0_3 x_2_1 t_2_1_0 t_2_1_1 t_2_1_2 t_2_1_3 x_2_2 t_2_2_0 t_2_2_1
 t_2_2_2 t_2_2_3 x_2_3 t_2_3_0 t_2_3_1 t_2_3_2 t_2_3_3 x_2_4 t_2_4_0
 t_2_4_1 t_2_4_2 t_2_4_3 x_3_0 t_3_0_0 t_3_0_1 t_3_0_2 t_3_0_3 x_3_1
 t_3_1_0 t_3_1_1 t_3_1_2 t_3_1_3 x_3_2 t_3_2_0 t_3_2_1 t_3_2_2 t_3_2_3
 x_3_3 t_3_3_0 t_3_3_1 t_3_3_2 t_3_3_3 x_3_4 t_3_4_0 t_3_4_1 t_3_4_2
 t_3_4_3 x_4_0 t_4_0_0 t_4_0_1 t_4_0_2 t_4_0_3 x_4_1 t_4_1_0 t_4_1_1
 t_4_1_2 t_4_1_3 x_4_2 t_4_2_0 t_4_2_1 t_4_2_2 t_4_2_3 x_4_3 t_4_3_0
 t_4_3_1 t_4_3_2 t_4_3_3 x_4_4 t_4_4_0 t_4_4_1 t_4_4_2 t_4_4_3 v_0 v_1 v_2
 v_3
End
